NAME : XML100_3345_01
DIMENSION : 101
NB_CLUSTERS : 3
CLUSTERING_ALG : KMedoids
CLUSTERING_PARAMS : k(2)
CLUSTERS
1 0
2 3 4 7 10 12 14 15 16 18 21 22 25 26 27 28 29 30 33 34 36 38 40 41 42 43 44 46 49 50 51 52 53 56 58 59 61 62 65 68 72 76 79 80 82 89 90 91 93 94 95 96 99 100
3 1 2 5 6 8 9 11 13 17 19 20 23 24 31 32 35 37 39 45 47 48 54 55 57 60 63 64 66 67 69 70 71 73 74 75 77 78 81 83 84 85 86 87 88 92 97 98
EOF